c *********************************
c * Circuit generated by BenCGen
c *
c * Parity_272
c *
c * Ports with 1 gate(s): 1
c * Ports with 2 gate(s): 272
c * Total gates: 273
c *********************************
p cnf 545 1089
1 275 0
-1 -275 0
1 -274 0
275 -274 0
-1 -275 274 0
1 2 -276 0
-1 2 276 0
1 -2 276 0
-1 -2 -276 0
3 4 -277 0
-3 4 277 0
3 -4 277 0
-3 -4 -277 0
5 6 -278 0
-5 6 278 0
5 -6 278 0
-5 -6 -278 0
7 8 -279 0
-7 8 279 0
7 -8 279 0
-7 -8 -279 0
9 10 -280 0
-9 10 280 0
9 -10 280 0
-9 -10 -280 0
11 12 -281 0
-11 12 281 0
11 -12 281 0
-11 -12 -281 0
13 14 -282 0
-13 14 282 0
13 -14 282 0
-13 -14 -282 0
15 16 -283 0
-15 16 283 0
15 -16 283 0
-15 -16 -283 0
17 18 -284 0
-17 18 284 0
17 -18 284 0
-17 -18 -284 0
19 20 -285 0
-19 20 285 0
19 -20 285 0
-19 -20 -285 0
21 22 -286 0
-21 22 286 0
21 -22 286 0
-21 -22 -286 0
23 24 -287 0
-23 24 287 0
23 -24 287 0
-23 -24 -287 0
25 26 -288 0
-25 26 288 0
25 -26 288 0
-25 -26 -288 0
27 28 -289 0
-27 28 289 0
27 -28 289 0
-27 -28 -289 0
29 30 -290 0
-29 30 290 0
29 -30 290 0
-29 -30 -290 0
31 32 -291 0
-31 32 291 0
31 -32 291 0
-31 -32 -291 0
33 34 -292 0
-33 34 292 0
33 -34 292 0
-33 -34 -292 0
35 36 -293 0
-35 36 293 0
35 -36 293 0
-35 -36 -293 0
37 38 -294 0
-37 38 294 0
37 -38 294 0
-37 -38 -294 0
39 40 -295 0
-39 40 295 0
39 -40 295 0
-39 -40 -295 0
41 42 -296 0
-41 42 296 0
41 -42 296 0
-41 -42 -296 0
43 44 -297 0
-43 44 297 0
43 -44 297 0
-43 -44 -297 0
45 46 -298 0
-45 46 298 0
45 -46 298 0
-45 -46 -298 0
47 48 -299 0
-47 48 299 0
47 -48 299 0
-47 -48 -299 0
49 50 -300 0
-49 50 300 0
49 -50 300 0
-49 -50 -300 0
51 52 -301 0
-51 52 301 0
51 -52 301 0
-51 -52 -301 0
53 54 -302 0
-53 54 302 0
53 -54 302 0
-53 -54 -302 0
55 56 -303 0
-55 56 303 0
55 -56 303 0
-55 -56 -303 0
57 58 -304 0
-57 58 304 0
57 -58 304 0
-57 -58 -304 0
59 60 -305 0
-59 60 305 0
59 -60 305 0
-59 -60 -305 0
61 62 -306 0
-61 62 306 0
61 -62 306 0
-61 -62 -306 0
63 64 -307 0
-63 64 307 0
63 -64 307 0
-63 -64 -307 0
65 66 -308 0
-65 66 308 0
65 -66 308 0
-65 -66 -308 0
67 68 -309 0
-67 68 309 0
67 -68 309 0
-67 -68 -309 0
69 70 -310 0
-69 70 310 0
69 -70 310 0
-69 -70 -310 0
71 72 -311 0
-71 72 311 0
71 -72 311 0
-71 -72 -311 0
73 74 -312 0
-73 74 312 0
73 -74 312 0
-73 -74 -312 0
75 76 -313 0
-75 76 313 0
75 -76 313 0
-75 -76 -313 0
77 78 -314 0
-77 78 314 0
77 -78 314 0
-77 -78 -314 0
79 80 -315 0
-79 80 315 0
79 -80 315 0
-79 -80 -315 0
81 82 -316 0
-81 82 316 0
81 -82 316 0
-81 -82 -316 0
83 84 -317 0
-83 84 317 0
83 -84 317 0
-83 -84 -317 0
85 86 -318 0
-85 86 318 0
85 -86 318 0
-85 -86 -318 0
87 88 -319 0
-87 88 319 0
87 -88 319 0
-87 -88 -319 0
89 90 -320 0
-89 90 320 0
89 -90 320 0
-89 -90 -320 0
91 92 -321 0
-91 92 321 0
91 -92 321 0
-91 -92 -321 0
93 94 -322 0
-93 94 322 0
93 -94 322 0
-93 -94 -322 0
95 96 -323 0
-95 96 323 0
95 -96 323 0
-95 -96 -323 0
97 98 -324 0
-97 98 324 0
97 -98 324 0
-97 -98 -324 0
99 100 -325 0
-99 100 325 0
99 -100 325 0
-99 -100 -325 0
101 102 -326 0
-101 102 326 0
101 -102 326 0
-101 -102 -326 0
103 104 -327 0
-103 104 327 0
103 -104 327 0
-103 -104 -327 0
105 106 -328 0
-105 106 328 0
105 -106 328 0
-105 -106 -328 0
107 108 -329 0
-107 108 329 0
107 -108 329 0
-107 -108 -329 0
109 110 -330 0
-109 110 330 0
109 -110 330 0
-109 -110 -330 0
111 112 -331 0
-111 112 331 0
111 -112 331 0
-111 -112 -331 0
113 114 -332 0
-113 114 332 0
113 -114 332 0
-113 -114 -332 0
115 116 -333 0
-115 116 333 0
115 -116 333 0
-115 -116 -333 0
117 118 -334 0
-117 118 334 0
117 -118 334 0
-117 -118 -334 0
119 120 -335 0
-119 120 335 0
119 -120 335 0
-119 -120 -335 0
121 122 -336 0
-121 122 336 0
121 -122 336 0
-121 -122 -336 0
123 124 -337 0
-123 124 337 0
123 -124 337 0
-123 -124 -337 0
125 126 -338 0
-125 126 338 0
125 -126 338 0
-125 -126 -338 0
127 128 -339 0
-127 128 339 0
127 -128 339 0
-127 -128 -339 0
129 130 -340 0
-129 130 340 0
129 -130 340 0
-129 -130 -340 0
131 132 -341 0
-131 132 341 0
131 -132 341 0
-131 -132 -341 0
133 134 -342 0
-133 134 342 0
133 -134 342 0
-133 -134 -342 0
135 136 -343 0
-135 136 343 0
135 -136 343 0
-135 -136 -343 0
137 138 -344 0
-137 138 344 0
137 -138 344 0
-137 -138 -344 0
139 140 -345 0
-139 140 345 0
139 -140 345 0
-139 -140 -345 0
141 142 -346 0
-141 142 346 0
141 -142 346 0
-141 -142 -346 0
143 144 -347 0
-143 144 347 0
143 -144 347 0
-143 -144 -347 0
145 146 -348 0
-145 146 348 0
145 -146 348 0
-145 -146 -348 0
147 148 -349 0
-147 148 349 0
147 -148 349 0
-147 -148 -349 0
149 150 -350 0
-149 150 350 0
149 -150 350 0
-149 -150 -350 0
151 152 -351 0
-151 152 351 0
151 -152 351 0
-151 -152 -351 0
153 154 -352 0
-153 154 352 0
153 -154 352 0
-153 -154 -352 0
155 156 -353 0
-155 156 353 0
155 -156 353 0
-155 -156 -353 0
157 158 -354 0
-157 158 354 0
157 -158 354 0
-157 -158 -354 0
159 160 -355 0
-159 160 355 0
159 -160 355 0
-159 -160 -355 0
161 162 -356 0
-161 162 356 0
161 -162 356 0
-161 -162 -356 0
163 164 -357 0
-163 164 357 0
163 -164 357 0
-163 -164 -357 0
165 166 -358 0
-165 166 358 0
165 -166 358 0
-165 -166 -358 0
167 168 -359 0
-167 168 359 0
167 -168 359 0
-167 -168 -359 0
169 170 -360 0
-169 170 360 0
169 -170 360 0
-169 -170 -360 0
171 172 -361 0
-171 172 361 0
171 -172 361 0
-171 -172 -361 0
173 174 -362 0
-173 174 362 0
173 -174 362 0
-173 -174 -362 0
175 176 -363 0
-175 176 363 0
175 -176 363 0
-175 -176 -363 0
177 178 -364 0
-177 178 364 0
177 -178 364 0
-177 -178 -364 0
179 180 -365 0
-179 180 365 0
179 -180 365 0
-179 -180 -365 0
181 182 -366 0
-181 182 366 0
181 -182 366 0
-181 -182 -366 0
183 184 -367 0
-183 184 367 0
183 -184 367 0
-183 -184 -367 0
185 186 -368 0
-185 186 368 0
185 -186 368 0
-185 -186 -368 0
187 188 -369 0
-187 188 369 0
187 -188 369 0
-187 -188 -369 0
189 190 -370 0
-189 190 370 0
189 -190 370 0
-189 -190 -370 0
191 192 -371 0
-191 192 371 0
191 -192 371 0
-191 -192 -371 0
193 194 -372 0
-193 194 372 0
193 -194 372 0
-193 -194 -372 0
195 196 -373 0
-195 196 373 0
195 -196 373 0
-195 -196 -373 0
197 198 -374 0
-197 198 374 0
197 -198 374 0
-197 -198 -374 0
199 200 -375 0
-199 200 375 0
199 -200 375 0
-199 -200 -375 0
201 202 -376 0
-201 202 376 0
201 -202 376 0
-201 -202 -376 0
203 204 -377 0
-203 204 377 0
203 -204 377 0
-203 -204 -377 0
205 206 -378 0
-205 206 378 0
205 -206 378 0
-205 -206 -378 0
207 208 -379 0
-207 208 379 0
207 -208 379 0
-207 -208 -379 0
209 210 -380 0
-209 210 380 0
209 -210 380 0
-209 -210 -380 0
211 212 -381 0
-211 212 381 0
211 -212 381 0
-211 -212 -381 0
213 214 -382 0
-213 214 382 0
213 -214 382 0
-213 -214 -382 0
215 216 -383 0
-215 216 383 0
215 -216 383 0
-215 -216 -383 0
217 218 -384 0
-217 218 384 0
217 -218 384 0
-217 -218 -384 0
219 220 -385 0
-219 220 385 0
219 -220 385 0
-219 -220 -385 0
221 222 -386 0
-221 222 386 0
221 -222 386 0
-221 -222 -386 0
223 224 -387 0
-223 224 387 0
223 -224 387 0
-223 -224 -387 0
225 226 -388 0
-225 226 388 0
225 -226 388 0
-225 -226 -388 0
227 228 -389 0
-227 228 389 0
227 -228 389 0
-227 -228 -389 0
229 230 -390 0
-229 230 390 0
229 -230 390 0
-229 -230 -390 0
231 232 -391 0
-231 232 391 0
231 -232 391 0
-231 -232 -391 0
233 234 -392 0
-233 234 392 0
233 -234 392 0
-233 -234 -392 0
235 236 -393 0
-235 236 393 0
235 -236 393 0
-235 -236 -393 0
237 238 -394 0
-237 238 394 0
237 -238 394 0
-237 -238 -394 0
239 240 -395 0
-239 240 395 0
239 -240 395 0
-239 -240 -395 0
241 242 -396 0
-241 242 396 0
241 -242 396 0
-241 -242 -396 0
243 244 -397 0
-243 244 397 0
243 -244 397 0
-243 -244 -397 0
245 246 -398 0
-245 246 398 0
245 -246 398 0
-245 -246 -398 0
247 248 -399 0
-247 248 399 0
247 -248 399 0
-247 -248 -399 0
249 250 -400 0
-249 250 400 0
249 -250 400 0
-249 -250 -400 0
251 252 -401 0
-251 252 401 0
251 -252 401 0
-251 -252 -401 0
253 254 -402 0
-253 254 402 0
253 -254 402 0
-253 -254 -402 0
255 256 -403 0
-255 256 403 0
255 -256 403 0
-255 -256 -403 0
257 258 -404 0
-257 258 404 0
257 -258 404 0
-257 -258 -404 0
259 260 -405 0
-259 260 405 0
259 -260 405 0
-259 -260 -405 0
261 262 -406 0
-261 262 406 0
261 -262 406 0
-261 -262 -406 0
263 264 -407 0
-263 264 407 0
263 -264 407 0
-263 -264 -407 0
265 266 -408 0
-265 266 408 0
265 -266 408 0
-265 -266 -408 0
267 268 -409 0
-267 268 409 0
267 -268 409 0
-267 -268 -409 0
269 270 -410 0
-269 270 410 0
269 -270 410 0
-269 -270 -410 0
271 272 -411 0
-271 272 411 0
271 -272 411 0
-271 -272 -411 0
276 277 -412 0
-276 277 412 0
276 -277 412 0
-276 -277 -412 0
278 279 -413 0
-278 279 413 0
278 -279 413 0
-278 -279 -413 0
280 281 -414 0
-280 281 414 0
280 -281 414 0
-280 -281 -414 0
282 283 -415 0
-282 283 415 0
282 -283 415 0
-282 -283 -415 0
284 285 -416 0
-284 285 416 0
284 -285 416 0
-284 -285 -416 0
286 287 -417 0
-286 287 417 0
286 -287 417 0
-286 -287 -417 0
288 289 -418 0
-288 289 418 0
288 -289 418 0
-288 -289 -418 0
290 291 -419 0
-290 291 419 0
290 -291 419 0
-290 -291 -419 0
292 293 -420 0
-292 293 420 0
292 -293 420 0
-292 -293 -420 0
294 295 -421 0
-294 295 421 0
294 -295 421 0
-294 -295 -421 0
296 297 -422 0
-296 297 422 0
296 -297 422 0
-296 -297 -422 0
298 299 -423 0
-298 299 423 0
298 -299 423 0
-298 -299 -423 0
300 301 -424 0
-300 301 424 0
300 -301 424 0
-300 -301 -424 0
302 303 -425 0
-302 303 425 0
302 -303 425 0
-302 -303 -425 0
304 305 -426 0
-304 305 426 0
304 -305 426 0
-304 -305 -426 0
306 307 -427 0
-306 307 427 0
306 -307 427 0
-306 -307 -427 0
308 309 -428 0
-308 309 428 0
308 -309 428 0
-308 -309 -428 0
310 311 -429 0
-310 311 429 0
310 -311 429 0
-310 -311 -429 0
312 313 -430 0
-312 313 430 0
312 -313 430 0
-312 -313 -430 0
314 315 -431 0
-314 315 431 0
314 -315 431 0
-314 -315 -431 0
316 317 -432 0
-316 317 432 0
316 -317 432 0
-316 -317 -432 0
318 319 -433 0
-318 319 433 0
318 -319 433 0
-318 -319 -433 0
320 321 -434 0
-320 321 434 0
320 -321 434 0
-320 -321 -434 0
322 323 -435 0
-322 323 435 0
322 -323 435 0
-322 -323 -435 0
324 325 -436 0
-324 325 436 0
324 -325 436 0
-324 -325 -436 0
326 327 -437 0
-326 327 437 0
326 -327 437 0
-326 -327 -437 0
328 329 -438 0
-328 329 438 0
328 -329 438 0
-328 -329 -438 0
330 331 -439 0
-330 331 439 0
330 -331 439 0
-330 -331 -439 0
332 333 -440 0
-332 333 440 0
332 -333 440 0
-332 -333 -440 0
334 335 -441 0
-334 335 441 0
334 -335 441 0
-334 -335 -441 0
336 337 -442 0
-336 337 442 0
336 -337 442 0
-336 -337 -442 0
338 339 -443 0
-338 339 443 0
338 -339 443 0
-338 -339 -443 0
340 341 -444 0
-340 341 444 0
340 -341 444 0
-340 -341 -444 0
342 343 -445 0
-342 343 445 0
342 -343 445 0
-342 -343 -445 0
344 345 -446 0
-344 345 446 0
344 -345 446 0
-344 -345 -446 0
346 347 -447 0
-346 347 447 0
346 -347 447 0
-346 -347 -447 0
348 349 -448 0
-348 349 448 0
348 -349 448 0
-348 -349 -448 0
350 351 -449 0
-350 351 449 0
350 -351 449 0
-350 -351 -449 0
352 353 -450 0
-352 353 450 0
352 -353 450 0
-352 -353 -450 0
354 355 -451 0
-354 355 451 0
354 -355 451 0
-354 -355 -451 0
356 357 -452 0
-356 357 452 0
356 -357 452 0
-356 -357 -452 0
358 359 -453 0
-358 359 453 0
358 -359 453 0
-358 -359 -453 0
360 361 -454 0
-360 361 454 0
360 -361 454 0
-360 -361 -454 0
362 363 -455 0
-362 363 455 0
362 -363 455 0
-362 -363 -455 0
364 365 -456 0
-364 365 456 0
364 -365 456 0
-364 -365 -456 0
366 367 -457 0
-366 367 457 0
366 -367 457 0
-366 -367 -457 0
368 369 -458 0
-368 369 458 0
368 -369 458 0
-368 -369 -458 0
370 371 -459 0
-370 371 459 0
370 -371 459 0
-370 -371 -459 0
372 373 -460 0
-372 373 460 0
372 -373 460 0
-372 -373 -460 0
374 375 -461 0
-374 375 461 0
374 -375 461 0
-374 -375 -461 0
376 377 -462 0
-376 377 462 0
376 -377 462 0
-376 -377 -462 0
378 379 -463 0
-378 379 463 0
378 -379 463 0
-378 -379 -463 0
380 381 -464 0
-380 381 464 0
380 -381 464 0
-380 -381 -464 0
382 383 -465 0
-382 383 465 0
382 -383 465 0
-382 -383 -465 0
384 385 -466 0
-384 385 466 0
384 -385 466 0
-384 -385 -466 0
386 387 -467 0
-386 387 467 0
386 -387 467 0
-386 -387 -467 0
388 389 -468 0
-388 389 468 0
388 -389 468 0
-388 -389 -468 0
390 391 -469 0
-390 391 469 0
390 -391 469 0
-390 -391 -469 0
392 393 -470 0
-392 393 470 0
392 -393 470 0
-392 -393 -470 0
394 395 -471 0
-394 395 471 0
394 -395 471 0
-394 -395 -471 0
396 397 -472 0
-396 397 472 0
396 -397 472 0
-396 -397 -472 0
398 399 -473 0
-398 399 473 0
398 -399 473 0
-398 -399 -473 0
400 401 -474 0
-400 401 474 0
400 -401 474 0
-400 -401 -474 0
402 403 -475 0
-402 403 475 0
402 -403 475 0
-402 -403 -475 0
404 405 -476 0
-404 405 476 0
404 -405 476 0
-404 -405 -476 0
406 407 -477 0
-406 407 477 0
406 -407 477 0
-406 -407 -477 0
408 409 -478 0
-408 409 478 0
408 -409 478 0
-408 -409 -478 0
410 411 -479 0
-410 411 479 0
410 -411 479 0
-410 -411 -479 0
412 413 -480 0
-412 413 480 0
412 -413 480 0
-412 -413 -480 0
414 415 -481 0
-414 415 481 0
414 -415 481 0
-414 -415 -481 0
416 417 -482 0
-416 417 482 0
416 -417 482 0
-416 -417 -482 0
418 419 -483 0
-418 419 483 0
418 -419 483 0
-418 -419 -483 0
420 421 -484 0
-420 421 484 0
420 -421 484 0
-420 -421 -484 0
422 423 -485 0
-422 423 485 0
422 -423 485 0
-422 -423 -485 0
424 425 -486 0
-424 425 486 0
424 -425 486 0
-424 -425 -486 0
426 427 -487 0
-426 427 487 0
426 -427 487 0
-426 -427 -487 0
428 429 -488 0
-428 429 488 0
428 -429 488 0
-428 -429 -488 0
430 431 -489 0
-430 431 489 0
430 -431 489 0
-430 -431 -489 0
432 433 -490 0
-432 433 490 0
432 -433 490 0
-432 -433 -490 0
434 435 -491 0
-434 435 491 0
434 -435 491 0
-434 -435 -491 0
436 437 -492 0
-436 437 492 0
436 -437 492 0
-436 -437 -492 0
438 439 -493 0
-438 439 493 0
438 -439 493 0
-438 -439 -493 0
440 441 -494 0
-440 441 494 0
440 -441 494 0
-440 -441 -494 0
442 443 -495 0
-442 443 495 0
442 -443 495 0
-442 -443 -495 0
444 445 -496 0
-444 445 496 0
444 -445 496 0
-444 -445 -496 0
446 447 -497 0
-446 447 497 0
446 -447 497 0
-446 -447 -497 0
448 449 -498 0
-448 449 498 0
448 -449 498 0
-448 -449 -498 0
450 451 -499 0
-450 451 499 0
450 -451 499 0
-450 -451 -499 0
452 453 -500 0
-452 453 500 0
452 -453 500 0
-452 -453 -500 0
454 455 -501 0
-454 455 501 0
454 -455 501 0
-454 -455 -501 0
456 457 -502 0
-456 457 502 0
456 -457 502 0
-456 -457 -502 0
458 459 -503 0
-458 459 503 0
458 -459 503 0
-458 -459 -503 0
460 461 -504 0
-460 461 504 0
460 -461 504 0
-460 -461 -504 0
462 463 -505 0
-462 463 505 0
462 -463 505 0
-462 -463 -505 0
464 465 -506 0
-464 465 506 0
464 -465 506 0
-464 -465 -506 0
466 467 -507 0
-466 467 507 0
466 -467 507 0
-466 -467 -507 0
468 469 -508 0
-468 469 508 0
468 -469 508 0
-468 -469 -508 0
470 471 -509 0
-470 471 509 0
470 -471 509 0
-470 -471 -509 0
472 473 -510 0
-472 473 510 0
472 -473 510 0
-472 -473 -510 0
474 475 -511 0
-474 475 511 0
474 -475 511 0
-474 -475 -511 0
476 477 -512 0
-476 477 512 0
476 -477 512 0
-476 -477 -512 0
478 479 -513 0
-478 479 513 0
478 -479 513 0
-478 -479 -513 0
480 481 -514 0
-480 481 514 0
480 -481 514 0
-480 -481 -514 0
482 483 -515 0
-482 483 515 0
482 -483 515 0
-482 -483 -515 0
484 485 -516 0
-484 485 516 0
484 -485 516 0
-484 -485 -516 0
486 487 -517 0
-486 487 517 0
486 -487 517 0
-486 -487 -517 0
488 489 -518 0
-488 489 518 0
488 -489 518 0
-488 -489 -518 0
490 491 -519 0
-490 491 519 0
490 -491 519 0
-490 -491 -519 0
492 493 -520 0
-492 493 520 0
492 -493 520 0
-492 -493 -520 0
494 495 -521 0
-494 495 521 0
494 -495 521 0
-494 -495 -521 0
496 497 -522 0
-496 497 522 0
496 -497 522 0
-496 -497 -522 0
498 499 -523 0
-498 499 523 0
498 -499 523 0
-498 -499 -523 0
500 501 -524 0
-500 501 524 0
500 -501 524 0
-500 -501 -524 0
502 503 -525 0
-502 503 525 0
502 -503 525 0
-502 -503 -525 0
504 505 -526 0
-504 505 526 0
504 -505 526 0
-504 -505 -526 0
506 507 -527 0
-506 507 527 0
506 -507 527 0
-506 -507 -527 0
508 509 -528 0
-508 509 528 0
508 -509 528 0
-508 -509 -528 0
510 511 -529 0
-510 511 529 0
510 -511 529 0
-510 -511 -529 0
512 513 -530 0
-512 513 530 0
512 -513 530 0
-512 -513 -530 0
514 515 -531 0
-514 515 531 0
514 -515 531 0
-514 -515 -531 0
516 517 -532 0
-516 517 532 0
516 -517 532 0
-516 -517 -532 0
518 519 -533 0
-518 519 533 0
518 -519 533 0
-518 -519 -533 0
520 521 -534 0
-520 521 534 0
520 -521 534 0
-520 -521 -534 0
522 523 -535 0
-522 523 535 0
522 -523 535 0
-522 -523 -535 0
524 525 -536 0
-524 525 536 0
524 -525 536 0
-524 -525 -536 0
526 527 -537 0
-526 527 537 0
526 -527 537 0
-526 -527 -537 0
528 529 -538 0
-528 529 538 0
528 -529 538 0
-528 -529 -538 0
531 532 -539 0
-531 532 539 0
531 -532 539 0
-531 -532 -539 0
533 534 -540 0
-533 534 540 0
533 -534 540 0
-533 -534 -540 0
535 536 -541 0
-535 536 541 0
535 -536 541 0
-535 -536 -541 0
537 538 -542 0
-537 538 542 0
537 -538 542 0
-537 -538 -542 0
539 540 -543 0
-539 540 543 0
539 -540 543 0
-539 -540 -543 0
541 542 -544 0
-541 542 544 0
541 -542 544 0
-541 -542 -544 0
543 544 -545 0
-543 544 545 0
543 -544 545 0
-543 -544 -545 0
545 530 -273 0
-545 530 273 0
545 -530 273 0
-545 -530 -273 0
